pair_coeff 1 209 0.0 0.0 0.0
pair_coeff 2 209 0.0 0.0 0.0
pair_coeff 3 209 0.0 0.0 0.0
pair_coeff 4 209 0.0 0.0 0.0
pair_coeff 5 209 0.0 0.0 0.0
pair_coeff 6 209 0.0 0.0 0.0
pair_coeff 7 209 0.0 0.0 0.0
pair_coeff 8 209 0.0 0.0 0.0
pair_coeff 9 209 0.0 0.0 0.0
pair_coeff 10 209 0.0 0.0 0.0
pair_coeff 11 209 0.0 0.0 0.0
pair_coeff 12 209 0.0 0.0 0.0
pair_coeff 13 209 0.0 0.0 0.0
pair_coeff 14 209 0.0 0.0 0.0
pair_coeff 15 209 0.0 0.0 0.0
pair_coeff 16 209 0.0 0.0 0.0
pair_coeff 17 209 0.0 0.0 0.0
pair_coeff 18 209 0.0 0.0 0.0
pair_coeff 19 209 0.0 0.0 0.0
pair_coeff 20 209 0.0 0.0 0.0
pair_coeff 21 209 0.0 0.0 0.0
pair_coeff 22 209 0.0 0.0 0.0
pair_coeff 23 209 0.0 0.0 0.0
pair_coeff 24 209 0.0 0.0 0.0
pair_coeff 25 209 0.0 0.0 0.0
pair_coeff 26 209 0.0 0.0 0.0
pair_coeff 27 209 0.0 0.0 0.0
pair_coeff 28 209 0.0 0.0 0.0
pair_coeff 29 209 0.0 0.0 0.0
pair_coeff 30 209 0.0 0.0 0.0
pair_coeff 31 209 0.0 0.0 0.0
pair_coeff 32 209 0.0 0.0 0.0
pair_coeff 33 209 0.0 0.0 0.0
pair_coeff 34 209 0.0 0.0 0.0
pair_coeff 35 209 0.0 0.0 0.0
pair_coeff 36 209 0.0 0.0 0.0
pair_coeff 37 209 0.0 0.0 0.0
pair_coeff 38 209 0.0 0.0 0.0
pair_coeff 39 209 0.0 0.0 0.0
pair_coeff 40 209 0.0 0.0 0.0
pair_coeff 41 209 0.0 0.0 0.0
pair_coeff 42 209 0.0 0.0 0.0
pair_coeff 43 209 0.0 0.0 0.0
pair_coeff 44 209 0.0 0.0 0.0
pair_coeff 45 209 0.0 0.0 0.0
pair_coeff 46 209 0.0 0.0 0.0
pair_coeff 47 209 0.0 0.0 0.0
pair_coeff 48 209 0.0 0.0 0.0
pair_coeff 49 209 0.0 0.0 0.0
pair_coeff 50 209 0.0 0.0 0.0
pair_coeff 51 209 0.0 0.0 0.0
pair_coeff 52 209 0.0 0.0 0.0
pair_coeff 53 209 0.0 0.0 0.0
pair_coeff 54 209 0.0 0.0 0.0
pair_coeff 55 209 0.0 0.0 0.0
pair_coeff 56 209 0.0 0.0 0.0
pair_coeff 57 209 0.0 0.0 0.0
pair_coeff 58 209 0.0 0.0 0.0
pair_coeff 59 209 0.0 0.0 0.0
pair_coeff 60 209 0.0 0.0 0.0
pair_coeff 61 209 0.0 0.0 0.0
pair_coeff 62 209 0.0 0.0 0.0
pair_coeff 63 209 0.0 0.0 0.0
pair_coeff 64 209 0.0 0.0 0.0
pair_coeff 65 209 0.0 0.0 0.0
pair_coeff 66 209 0.0 0.0 0.0
pair_coeff 67 209 0.0 0.0 0.0
pair_coeff 68 209 0.0 0.0 0.0
pair_coeff 69 209 0.0 0.0 0.0
pair_coeff 70 209 0.0 0.0 0.0
pair_coeff 71 209 0.0 0.0 0.0
pair_coeff 72 209 0.0 0.0 0.0
pair_coeff 73 209 0.0 0.0 0.0
pair_coeff 74 209 0.0 0.0 0.0
pair_coeff 75 209 0.0 0.0 0.0
pair_coeff 76 209 0.0 0.0 0.0
pair_coeff 77 209 0.0 0.0 0.0
pair_coeff 78 209 0.0 0.0 0.0
pair_coeff 79 209 0.0 0.0 0.0
pair_coeff 80 209 0.0 0.0 0.0
pair_coeff 81 209 0.0 0.0 0.0
pair_coeff 82 209 0.0 0.0 0.0
pair_coeff 83 209 0.0 0.0 0.0
pair_coeff 84 209 0.0 0.0 0.0
pair_coeff 85 209 0.0 0.0 0.0
pair_coeff 86 209 0.0 0.0 0.0
pair_coeff 87 209 0.0 0.0 0.0
pair_coeff 88 209 0.0 0.0 0.0
pair_coeff 89 209 0.0 0.0 0.0
pair_coeff 90 209 0.0 0.0 0.0
pair_coeff 91 209 0.0 0.0 0.0
pair_coeff 92 209 0.0 0.0 0.0
pair_coeff 93 209 0.0 0.0 0.0
pair_coeff 94 209 0.0 0.0 0.0
pair_coeff 95 209 0.0 0.0 0.0
pair_coeff 96 209 0.0 0.0 0.0
pair_coeff 97 209 0.0 0.0 0.0
pair_coeff 98 209 0.0 0.0 0.0
pair_coeff 99 209 0.0 0.0 0.0
pair_coeff 100 209 0.0 0.0 0.0
pair_coeff 101 209 0.0 0.0 0.0
pair_coeff 102 209 0.0 0.0 0.0
pair_coeff 103 209 0.0 0.0 0.0
pair_coeff 104 209 0.0 0.0 0.0
pair_coeff 105 209 0.0 0.0 0.0
pair_coeff 106 209 0.0 0.0 0.0
pair_coeff 107 209 0.0 0.0 0.0
pair_coeff 108 209 0.0 0.0 0.0
pair_coeff 109 209 0.0 0.0 0.0
pair_coeff 110 209 0.0 0.0 0.0
pair_coeff 111 209 0.0 0.0 0.0
pair_coeff 112 209 0.0 0.0 0.0
pair_coeff 113 209 0.0 0.0 0.0
pair_coeff 114 209 0.0 0.0 0.0
pair_coeff 115 209 0.0 0.0 0.0
pair_coeff 116 209 0.0 0.0 0.0
pair_coeff 117 209 0.0 0.0 0.0
pair_coeff 118 209 0.0 0.0 0.0
pair_coeff 119 209 0.0 0.0 0.0
pair_coeff 120 209 0.0 0.0 0.0
pair_coeff 121 209 0.0 0.0 0.0
pair_coeff 122 209 0.0 0.0 0.0
pair_coeff 123 209 0.0 0.0 0.0
pair_coeff 124 209 0.0 0.0 0.0
pair_coeff 125 209 0.0 0.0 0.0
pair_coeff 126 209 0.0 0.0 0.0
pair_coeff 127 209 0.0 0.0 0.0
pair_coeff 128 209 0.0 0.0 0.0
pair_coeff 129 209 0.0 0.0 0.0
pair_coeff 130 209 0.0 0.0 0.0
pair_coeff 131 209 0.0 0.0 0.0
pair_coeff 132 209 0.0 0.0 0.0
pair_coeff 133 209 0.0 0.0 0.0
pair_coeff 134 209 0.0 0.0 0.0
pair_coeff 135 209 0.0 0.0 0.0
pair_coeff 136 209 0.0 0.0 0.0
pair_coeff 137 209 0.0 0.0 0.0
pair_coeff 138 209 0.0 0.0 0.0
pair_coeff 139 209 0.0 0.0 0.0
pair_coeff 140 209 0.0 0.0 0.0
pair_coeff 141 209 0.0 0.0 0.0
pair_coeff 142 209 0.0 0.0 0.0
pair_coeff 143 209 0.0 0.0 0.0
pair_coeff 144 209 0.0 0.0 0.0
pair_coeff 145 209 0.0 0.0 0.0
pair_coeff 146 209 0.0 0.0 0.0
pair_coeff 147 209 0.0 0.0 0.0
pair_coeff 148 209 0.0 0.0 0.0
pair_coeff 149 209 0.0 0.0 0.0
pair_coeff 150 209 0.0 0.0 0.0
pair_coeff 151 209 0.0 0.0 0.0
pair_coeff 152 209 0.0 0.0 0.0
pair_coeff 153 209 0.0 0.0 0.0
pair_coeff 154 209 0.0 0.0 0.0
pair_coeff 155 209 0.0 0.0 0.0
pair_coeff 156 209 0.0 0.0 0.0
pair_coeff 157 209 0.0 0.0 0.0
pair_coeff 158 209 0.0 0.0 0.0
pair_coeff 159 209 0.0 0.0 0.0
pair_coeff 160 209 0.0 0.0 0.0
pair_coeff 161 209 0.0 0.0 0.0
pair_coeff 162 209 0.0 0.0 0.0
pair_coeff 163 209 0.0 0.0 0.0
pair_coeff 164 209 0.0 0.0 0.0
pair_coeff 165 209 0.0 0.0 0.0
pair_coeff 166 209 0.0 0.0 0.0
pair_coeff 167 209 0.0 0.0 0.0
pair_coeff 168 209 0.0 0.0 0.0
pair_coeff 169 209 0.0 0.0 0.0
pair_coeff 170 209 0.0 0.0 0.0
pair_coeff 171 209 0.0 0.0 0.0
pair_coeff 172 209 0.0 0.0 0.0
pair_coeff 173 209 0.0 0.0 0.0
pair_coeff 174 209 0.0 0.0 0.0
pair_coeff 175 209 0.0 0.0 0.0
pair_coeff 176 209 0.0 0.0 0.0
pair_coeff 177 209 0.0 0.0 0.0
pair_coeff 178 209 0.0 0.0 0.0
pair_coeff 179 209 0.0 0.0 0.0
pair_coeff 180 209 0.0 0.0 0.0
pair_coeff 181 209 0.0 0.0 0.0
pair_coeff 182 209 0.0 0.0 0.0
pair_coeff 183 209 0.0 0.0 0.0
pair_coeff 184 209 0.0 0.0 0.0
pair_coeff 185 209 0.0 0.0 0.0
pair_coeff 186 209 0.0 0.0 0.0
pair_coeff 187 209 0.0 0.0 0.0
pair_coeff 188 209 0.0 0.0 0.0
pair_coeff 189 209 0.0 0.0 0.0
pair_coeff 190 209 0.0 0.0 0.0
pair_coeff 191 209 0.0 0.0 0.0
pair_coeff 192 209 0.0 0.0 0.0
pair_coeff 193 209 0.0 0.0 0.0
pair_coeff 194 209 0.0 0.0 0.0
pair_coeff 195 209 0.0 0.0 0.0
pair_coeff 196 209 0.0 0.0 0.0
pair_coeff 197 209 0.0 0.0 0.0
pair_coeff 198 209 0.0 0.0 0.0
pair_coeff 199 209 0.0 0.0 0.0
pair_coeff 200 209 0.0 0.0 0.0
pair_coeff 201 209 0.0 0.0 0.0
pair_coeff 202 209 0.0 0.0 0.0
pair_coeff 203 209 0.0 0.0 0.0
pair_coeff 204 209 0.0 0.0 0.0
pair_coeff 205 209 0.0 0.0 0.0
pair_coeff 206 209 0.0 0.0 0.0
pair_coeff 207 209 0.0 0.0 0.0
pair_coeff 208 209 0.0 0.0 0.0
pair_coeff 209 209 0.0 0.0 0.0
